; benchmark generated from python API
(set-info :status unknown)
(declare-fun x_month () Int)
(declare-fun x_day () Int)
(declare-fun x_year () Int)
(assert
 (>= x_month 1))
(assert
 (<= x_month 12))
(assert
 (>= x_day 1))
(assert
 (<= x_day 31))
(assert
 (let (($x180 (<= x_day 28)))
 (let (($x748 (<= x_day 29)))
 (let (($x699 (= (mod x_year 400) 0)))
 (let (($x751 (= (mod x_year 4) 0)))
 (let (($x134 (ite (or (and $x751 (and (distinct (mod x_year 100) 0) true)) $x699) $x748 $x180)))
 (let (($x750 (= x_month 2)))
 (ite $x750 $x134 true))))))))
(assert
 (let (($x769 (<= x_day 30)))
 (let (($x346 (or (= x_month 4) (= x_month 6) (= x_month 9) (= x_month 11))))
 (ite $x346 $x769 true))))
(assert
 (let (($x217 (= x_year 2023)))
 (let (($x249 (and $x217 (or (> x_month 1) (and (= x_month 1) (>= x_day 1))))))
 (or (> x_year 2023) $x249))))
(assert
 (let (($x29 (or (and (= (mod 2000 4) 0) (and (distinct (mod 2000 100) 0) true)) (= (mod 2000 400) 0))))
(let ((?x36 (ite (= 3 2) (ite $x29 31 31) (ite (= 3 1) (ite $x29 0 0) 0))))
(let ((?x40 (ite $x29 60 59)))
(let ((?x41 (ite (= 3 3) ?x40 ?x36)))
(let ((?x46 (ite (= 3 4) (ite $x29 91 90) ?x41)))
(let ((?x52 (ite (= 3 5) (ite $x29 121 120) ?x46)))
(let ((?x58 (ite (= 3 6) (ite $x29 152 151) ?x52)))
(let ((?x64 (ite (= 3 7) (ite $x29 182 181) ?x58)))
(let ((?x70 (ite (= 3 8) (ite $x29 213 212) ?x64)))
(let ((?x76 (ite (= 3 9) (ite $x29 244 243) ?x70)))
(let ((?x82 (ite (= 3 10) (ite $x29 274 273) ?x76)))
(let ((?x88 (ite (= 3 11) (ite $x29 305 304) ?x82)))
(let ((?x16 (- (+ (* 365 (- 2000 1)) (div (- 2000 1) 4)) (div (- 2000 1) 100))))
(let ((?x95 (+ (+ ?x16 (div (- 2000 1) 400)) (ite (= 3 12) (ite $x29 335 334) ?x88))))
(let ((?x97 (+ ?x95 (- 1 1))))
(let ((?x556 (+ (mod (- (+ x_month (+ (* 0 12) 0)) 1) 12) 1)))
(let ((?x697 (ite (or (= ?x556 4) (= ?x556 6) (= ?x556 9) (= ?x556 11)) 30 31)))
(let ((?x177 (+ 0 (div (- (+ x_month (+ (* 0 12) 0)) 1) 12))))
(let ((?x311 (+ x_year ?x177)))
(let (($x552 (or (and (= (mod ?x311 4) 0) (and (distinct (mod ?x311 100) 0) true)) (= (mod ?x311 400) 0))))
(let ((?x453 (ite (= ?x556 2) (ite $x552 29 28) ?x697)))
(let (($x188 (< x_day 1)))
(let ((?x394 (ite $x188 1 (ite (> x_day ?x453) ?x453 x_day))))
(let (($x342 (and (= (mod (+ ?x311 (* (div 31 146097) 400)) 4) 0) (and (distinct (mod (+ ?x311 (* (div 31 146097) 400)) 100) 0) true))))
(let (($x610 (or $x342 (= (mod (+ ?x311 (* (div 31 146097) 400)) 400) 0))))
(let ((?x660 (ite (= 2 ?x556) (ite $x610 31 31) (ite (= 1 ?x556) (ite $x610 0 0) 0))))
(let ((?x2527 (ite (= 4 ?x556) (ite $x610 91 90) (ite (= 3 ?x556) (ite $x610 60 59) ?x660))))
(let ((?x1068 (ite (= 6 ?x556) (ite $x610 152 151) (ite (= 5 ?x556) (ite $x610 121 120) ?x2527))))
(let ((?x2856 (ite (= 8 ?x556) (ite $x610 213 212) (ite (= 7 ?x556) (ite $x610 182 181) ?x1068))))
(let ((?x809 (ite (= 10 ?x556) (ite $x610 274 273) (ite (= 9 ?x556) (ite $x610 244 243) ?x2856))))
(let ((?x792 (ite (= 12 ?x556) (ite $x610 335 334) (ite (= 11 ?x556) (ite $x610 305 304) ?x809))))
(let ((?x236 (+ (* 365 (- (+ ?x311 (* (div 31 146097) 400)) 1)) (div (- (+ ?x311 (* (div 31 146097) 400)) 1) 4))))
(let ((?x242 (+ (- ?x236 (div (- (+ ?x311 (* (div 31 146097) 400)) 1) 100)) (div (- (+ ?x311 (* (div 31 146097) 400)) 1) 400))))
(let ((?x306 (+ (+ (- (+ (+ ?x242 ?x792) (- ?x394 1)) ?x97) (mod 31 146097)) ?x97)))
(let ((?x299 (mod ?x306 146097)))
(let ((?x825 (div ?x299 36524)))
(let ((?x829 (ite (<= 4 ?x825) 3 ?x825)))
(let ((?x390 (- ?x299 (* ?x829 36524))))
(let ((?x2344 (mod ?x390 1461)))
(let ((?x2647 (div ?x2344 365)))
(let ((?x1056 (ite (<= 4 ?x2647) 3 ?x2647)))
(let ((?x466 (+ (+ (* (div ?x306 146097) 400) (* ?x829 100)) (* (div ?x390 1461) 4))))
(let ((?x463 (+ (+ ?x466 ?x1056) 1)))
(let (($x797 (or (and (= (mod ?x463 4) 0) (and (distinct (mod ?x463 100) 0) true)) (= (mod ?x463 400) 0))))
(let ((?x2343 (- ?x2344 (* ?x1056 365))))
(let ((?x850 (ite $x797 31 31)))
(let (($x1469 (>= ?x2343 ?x850)))
(let ((?x622 (ite $x1469 (+ (- ?x2343 ?x850) 1) (+ (- ?x2343 (ite $x797 0 0)) 1))))
(let ((?x367 (ite $x797 60 59)))
(let (($x810 (>= ?x2343 ?x367)))
(let ((?x400 (ite $x797 91 90)))
(let (($x298 (>= ?x2343 ?x400)))
(let ((?x110 (ite $x298 (+ (- ?x2343 ?x400) 1) (ite $x810 (+ (- ?x2343 ?x367) 1) ?x622))))
(let ((?x112 (ite $x797 121 120)))
(let (($x787 (>= ?x2343 ?x112)))
(let ((?x541 (ite $x797 152 151)))
(let (($x323 (>= ?x2343 ?x541)))
(let ((?x319 (ite $x323 (+ (- ?x2343 ?x541) 1) (ite $x787 (+ (- ?x2343 ?x112) 1) ?x110))))
(let ((?x606 (ite $x797 182 181)))
(let (($x851 (>= ?x2343 ?x606)))
(let ((?x379 (ite $x797 213 212)))
(let (($x2515 (>= ?x2343 ?x379)))
(let ((?x489 (ite $x2515 (+ (- ?x2343 ?x379) 1) (ite $x851 (+ (- ?x2343 ?x606) 1) ?x319))))
(let ((?x623 (ite $x797 244 243)))
(let (($x844 (>= ?x2343 ?x623)))
(let ((?x409 (ite $x797 274 273)))
(let (($x848 (>= ?x2343 ?x409)))
(let ((?x392 (ite $x848 (+ (- ?x2343 ?x409) 1) (ite $x844 (+ (- ?x2343 ?x623) 1) ?x489))))
(let ((?x802 (ite $x797 305 304)))
(let (($x292 (>= ?x2343 ?x802)))
(let ((?x837 (ite $x797 335 334)))
(let (($x789 (>= ?x2343 ?x837)))
(let ((?x596 (ite $x789 (+ (- ?x2343 ?x837) 1) (ite $x292 (+ (- ?x2343 ?x802) 1) ?x392))))
(let (($x391 (= 0 31)))
(let ((?x211 (+ (mod (- (+ x_month (+ (* 0 12) 1)) 1) 12) 1)))
(let ((?x510 (ite (or (= ?x211 4) (= ?x211 6) (= ?x211 9) (= ?x211 11)) 30 31)))
(let ((?x652 (+ 0 (div (- (+ x_month (+ (* 0 12) 1)) 1) 12))))
(let ((?x207 (+ x_year ?x652)))
(let (($x509 (or (and (= (mod ?x207 4) 0) (and (distinct (mod ?x207 100) 0) true)) (= (mod ?x207 400) 0))))
(let ((?x205 (ite (= ?x211 2) (ite $x509 29 28) ?x510)))
(let ((?x204 (ite $x188 1 (ite (> x_day ?x205) ?x205 x_day))))
(let (($x293 (and (= (mod (+ ?x207 (* (div 0 146097) 400)) 4) 0) (and (distinct (mod (+ ?x207 (* (div 0 146097) 400)) 100) 0) true))))
(let (($x297 (or $x293 (= (mod (+ ?x207 (* (div 0 146097) 400)) 400) 0))))
(let ((?x574 (ite (= 2 ?x211) (ite $x297 31 31) (ite (= 1 ?x211) (ite $x297 0 0) 0))))
(let ((?x348 (ite (= 4 ?x211) (ite $x297 91 90) (ite (= 3 ?x211) (ite $x297 60 59) ?x574))))
(let ((?x680 (ite (= 6 ?x211) (ite $x297 152 151) (ite (= 5 ?x211) (ite $x297 121 120) ?x348))))
(let ((?x763 (ite (= 8 ?x211) (ite $x297 213 212) (ite (= 7 ?x211) (ite $x297 182 181) ?x680))))
(let ((?x624 (ite (= 10 ?x211) (ite $x297 274 273) (ite (= 9 ?x211) (ite $x297 244 243) ?x763))))
(let ((?x739 (ite (= 12 ?x211) (ite $x297 335 334) (ite (= 11 ?x211) (ite $x297 305 304) ?x624))))
(let ((?x459 (+ (* 365 (- (+ ?x207 (* (div 0 146097) 400)) 1)) (div (- (+ ?x207 (* (div 0 146097) 400)) 1) 4))))
(let ((?x727 (+ (- ?x459 (div (- (+ ?x207 (* (div 0 146097) 400)) 1) 100)) (div (- (+ ?x207 (* (div 0 146097) 400)) 1) 400))))
(let ((?x664 (+ (+ (- (+ (+ ?x727 ?x739) (- ?x204 1)) ?x97) (mod 0 146097)) ?x97)))
(let ((?x370 (mod ?x664 146097)))
(let ((?x419 (div ?x370 36524)))
(let ((?x389 (ite (<= 4 ?x419) 3 ?x419)))
(let ((?x543 (- ?x370 (* ?x389 36524))))
(let ((?x141 (mod ?x543 1461)))
(let ((?x376 (div ?x141 365)))
(let ((?x127 (ite (<= 4 ?x376) 3 ?x376)))
(let ((?x580 (+ (+ (* (div ?x664 146097) 400) (* ?x389 100)) (* (div ?x543 1461) 4))))
(let ((?x586 (+ (+ ?x580 ?x127) 1)))
(let (($x462 (or (and (= (mod ?x586 4) 0) (and (distinct (mod ?x586 100) 0) true)) (= (mod ?x586 400) 0))))
(let ((?x467 (- ?x141 (* ?x127 365))))
(let ((?x723 (ite $x462 31 31)))
(let (($x362 (>= ?x467 ?x723)))
(let ((?x183 (ite $x362 (+ (- ?x467 ?x723) 1) (+ (- ?x467 (ite $x462 0 0)) 1))))
(let ((?x335 (ite $x462 60 59)))
(let (($x374 (>= ?x467 ?x335)))
(let ((?x140 (ite $x462 91 90)))
(let (($x578 (>= ?x467 ?x140)))
(let ((?x538 (ite $x578 (+ (- ?x467 ?x140) 1) (ite $x374 (+ (- ?x467 ?x335) 1) ?x183))))
(let ((?x119 (ite $x462 121 120)))
(let (($x553 (>= ?x467 ?x119)))
(let ((?x277 (ite $x462 152 151)))
(let (($x588 (>= ?x467 ?x277)))
(let ((?x120 (ite $x588 (+ (- ?x467 ?x277) 1) (ite $x553 (+ (- ?x467 ?x119) 1) ?x538))))
(let ((?x690 (ite $x462 182 181)))
(let (($x1875 (>= ?x467 ?x690)))
(let ((?x961 (ite $x462 213 212)))
(let (($x633 (>= ?x467 ?x961)))
(let ((?x550 (ite $x633 (+ (- ?x467 ?x961) 1) (ite $x1875 (+ (- ?x467 ?x690) 1) ?x120))))
(let ((?x1323 (ite $x462 244 243)))
(let (($x523 (>= ?x467 ?x1323)))
(let ((?x746 (ite $x462 274 273)))
(let (($x235 (>= ?x467 ?x746)))
(let ((?x199 (ite $x235 (+ (- ?x467 ?x746) 1) (ite $x523 (+ (- ?x467 ?x1323) 1) ?x550))))
(let ((?x567 (ite $x462 305 304)))
(let (($x655 (>= ?x467 ?x567)))
(let ((?x471 (ite $x462 335 334)))
(let (($x234 (>= ?x467 ?x471)))
(let ((?x701 (ite $x234 (+ (- ?x467 ?x471) 1) (ite $x655 (+ (- ?x467 ?x567) 1) ?x199))))
(let (($x500 (= 0 0)))
(let ((?x806 (ite $x787 5 (ite $x298 4 (ite $x810 3 (ite $x1469 2 1))))))
(let ((?x100 (ite $x844 9 (ite $x2515 8 (ite $x851 7 (ite $x323 6 ?x806))))))
(let ((?x354 (ite $x789 12 (ite $x292 11 (ite $x848 10 ?x100)))))
(let ((?x608 (ite $x391 ?x556 ?x354)))
(let ((?x584 (ite $x553 5 (ite $x578 4 (ite $x374 3 (ite $x362 2 1))))))
(let ((?x511 (ite $x523 9 (ite $x633 8 (ite $x1875 7 (ite $x588 6 ?x584))))))
(let ((?x426 (ite $x500 ?x211 (ite $x234 12 (ite $x655 11 (ite $x235 10 ?x511))))))
(let (($x602 (or (< ?x426 ?x608) (and (= ?x426 ?x608) (<= (ite $x500 ?x204 ?x701) (ite $x391 ?x394 ?x596))))))
(let (($x330 (or (< (ite $x500 ?x207 ?x586) (ite $x391 ?x311 ?x463)) (and (= (ite $x500 ?x207 ?x586) (ite $x391 ?x311 ?x463)) $x602))))
(not $x330)))))))))))))))))))))))))))))))))))))))))))))))))))))))))))))))))))))))))))))))))))))))))))))))))))))))))))))))))))))))))))))))))))))))))))))))
(check-sat)
